c DCNF-Autarky [version 0.0.1]. 
c Copyright (c) 2018-2019 Swansea University. 
c 
c Input QBF/DQBF path: Castellini18//toilet_c_08_01.2.qdimacs
c Output SAT Translation Path: /tmp/toilet_c_08_01.2.qdimacs-dcnfAutarky.dimacs
c Input Clause Count (tautology free): 229
c
c Performing E1-Autarky iteration.
c Remaining clauses count after E-Reduction: 193
c
c Performing A1-Autarky iteration.
c Running Lingeling ... 
c
c Remaining clauses count after A-Reduction: 193
c
c Input Parameter (command line, file): 
c input filename   Castellini18//toilet_c_08_01.2.qdimacs
c output filename  /tmp/toilet_c_08_01.2.qdimacs-dcnfAutarky.dimacs
c autarky level    1
c conformity level 0
c encoding type    2
c no.of var        55
c no.of clauses    229
c no.of taut cls   0
c 
c Output Parameters: 
c remaining no.of clauses  193
c
c filename pn pc autarky ntaut rpa rpe rpcdiff result
c "Castellini18//toilet_c_08_01.2.qdimacs" 55 229 "E1+A1" 0 3 43 36 "RED" 
p cnf 55 193
e 10 11 12 13 14 15 16 17 18 19 20 21 22 23 24 25 26 27 0
a 37 36 38 0
e 1 2 3 4 5 6 7 8 9 28 29 30 31 32 33 34 35 39 40 41 42 43 44 45 46 47 48 49 50 51 52 53 54 55 0
-36 -37 -39 38 0
-36 -37 -40 38 0
-36 -37 -41 38 0
-36 -37 -42 38 0
-36 -37 -43 38 0
-36 -37 38 44 0
-36 -37 -45 38 0
-36 -37 -46 38 0
-37 -38 -39 36 0
-37 -38 -40 36 0
-37 -38 -41 36 0
-37 -38 -42 36 0
-37 -38 36 43 0
-37 -38 -44 36 0
-37 -38 -45 36 0
-37 -38 -46 36 0
-37 -39 36 38 0
-37 -40 36 38 0
-37 -41 36 38 0
-37 36 38 42 0
-37 -43 36 38 0
-37 -44 36 38 0
-37 -45 36 38 0
-37 -46 36 38 0
-36 -38 -39 37 0
-36 -38 -40 37 0
-36 -38 37 41 0
-36 -38 -42 37 0
-36 -38 -43 37 0
-36 -38 -44 37 0
-36 -38 -45 37 0
-36 -38 -46 37 0
-36 -39 37 38 0
-36 37 38 40 0
-36 -41 37 38 0
-36 -42 37 38 0
-36 -43 37 38 0
-36 -44 37 38 0
-36 -45 37 38 0
-36 -46 37 38 0
-38 36 37 39 0
-38 -40 36 37 0
-38 -41 36 37 0
-38 -42 36 37 0
-38 -43 36 37 0
-38 -44 36 37 0
-38 -45 36 37 0
-38 -46 36 37 0
-39 36 37 38 0
-40 36 37 38 0
-41 36 37 38 0
-42 36 37 38 0
-43 36 37 38 0
-44 36 37 38 0
-45 36 37 38 0
36 37 38 46 0
-36 -37 -38 -39 0
-36 -37 -38 -40 0
-36 -37 -38 -41 0
-36 -37 -38 -42 0
-36 -37 -38 -43 0
-36 -37 -38 -44 0
-36 -37 -38 45 0
-36 -37 -38 -46 0
-47 0
-48 0
-49 0
-50 0
-51 0
-52 0
-53 0
-54 0
-55 0
-10 -55 0
-10 -47 0
-12 -48 0
-12 -55 0
-14 -49 0
-14 -55 0
-16 -50 0
-16 -55 0
-18 -51 0
-18 -55 0
-20 -52 0
-20 -55 0
-22 -53 0
-22 -55 0
-24 -54 0
-24 -55 0
-25 55 0
-10 2 0
-10 -28 0
-10 1 0
-12 3 0
-12 -29 0
-12 2 0
-14 4 0
-14 -30 0
-14 2 0
-16 5 0
-16 -31 0
-16 2 0
-18 6 0
-18 -32 0
-18 2 0
-20 7 0
-20 -33 0
-20 2 0
-22 8 0
-22 -34 0
-22 2 0
-24 9 0
-24 -35 0
-24 2 0
-2 -25 0
-1 10 47 0
-47 1 0
-2 10 12 14 16 18 20 22 24 55 0
-55 2 25 0
-28 46 0
-46 10 28 0
-3 12 48 0
-48 3 0
-29 39 0
-39 12 29 0
-4 14 49 0
-49 4 0
-30 40 0
-40 14 30 0
-5 16 50 0
-50 5 0
-31 41 0
-41 16 31 0
-6 18 51 0
-51 6 0
-32 42 0
-42 18 32 0
-7 20 52 0
-52 7 0
-33 43 0
-43 20 33 0
-8 22 53 0
-53 8 0
-34 44 0
-44 22 34 0
-9 24 54 0
-54 9 0
-35 45 0
-45 24 35 0
-10 -12 0
-10 -14 0
-10 -16 0
-10 -18 0
-10 -20 0
-10 -22 0
-10 -24 0
-10 -25 0
-12 -14 0
-12 -16 0
-12 -18 0
-12 -20 0
-12 -22 0
-12 -24 0
-12 -25 0
-14 -16 0
-14 -18 0
-14 -20 0
-14 -22 0
-14 -24 0
-14 -25 0
-16 -18 0
-16 -20 0
-16 -22 0
-16 -24 0
-16 -25 0
-18 -20 0
-18 -22 0
-18 -24 0
-18 -25 0
-20 -22 0
-20 -24 0
-20 -25 0
-22 -24 0
-22 -25 0
-24 -25 0
-28 0
-29 0
-30 0
-31 0
-32 0
-33 0
-34 0
-35 0
